assets/logs/0_10x10_clingo/0_10x10_clingo.solution.log

-----------------------------------------
| 65| 38| 61| 50| 69| 83| 77|  1|  1| 87|
-----------------------------------------
| 34| 52| 67|  1| 59| 48| 71| 85| 79| 17|
-----------------------------------------
| 40| 63| 36| 70|  1| 75| 81| 19| 89|  0|
-----------------------------------------
| 74| 32| 54|  8| 46| 57|  1| 73| 15| 53|
-----------------------------------------
| 56| 42| 72| 78| 68|  6| 21| 55|  1|  3|
-----------------------------------------
| 30| 76| 10| 44| 23| 80| 35|  4| 51| 13|
-----------------------------------------
| 12| 58| 25| 22| 33| 66| 49| 43|  5|  2|
-----------------------------------------
| 27| 28| 31| 16| 86| 20| 82| 37| 11| 45|
-----------------------------------------
| 60| 14| 24|  1| 64|  0| 88| 47| 41|  7|
-----------------------------------------
| 26| 29| 62|  1| 18| 84| 39|  9| 90|  0|
-----------------------------------------

| n = 10 | k = 8 | coverage = 97, 97.0%
 Time 300.004
 Name 0_10x10_clingo

