assets/logs/0_10x10_clingo/0_10x10_clingo.log
clingo version 5.4.0
Reading from ...ts/logs/0_10x10_clingo/knights_tour.lp ...
Solving...
Answer: 1
occ(1,9,4) occ(1,1,9) occ(1,3,5) occ(1,5,9) occ(1,1,8) occ(1,2,4) occ(1,10,4) occ(1,4,7) occ(2,7,10) occ(3,5,10) coverage(6)
Optimization: -6
Answer: 2
occ(1,9,4) occ(1,1,9) occ(1,3,5) occ(1,5,9) occ(1,1,8) occ(1,2,4) occ(1,10,4) occ(1,4,7) occ(2,7,10) occ(3,5,10) coverage(43) occ(7,1,10) occ(19,1,4) occ(36,1,3) occ(41,1,1) occ(80,1,7) occ(9,2,8) occ(13,2,10) occ(17,2,6) occ(21,2,2) occ(34,2,5) occ(39,2,3) occ(78,2,9) occ(5,3,9) occ(15,3,8) occ(37,3,1) occ(38,3,2) occ(82,3,6) occ(11,4,9) occ(23,4,1) occ(28,4,2) occ(32,4,6) occ(76,4,10) occ(84,4,4) occ(30,5,4) occ(35,5,2) occ(40,5,1) occ(70,5,8) occ(88,5,3) occ(4,6,8) occ(25,6,2) occ(26,6,1) occ(74,6,9) occ(86,6,5) occ(29,7,3) occ(33,7,1) occ(42,7,2) occ(54,7,8) occ(68,7,9) occ(72,7,7) occ(6,8,7) occ(12,8,10) occ(18,8,5) occ(24,8,2) occ(27,8,1) occ(56,8,6) occ(60,8,4) occ(10,9,8) occ(16,9,7) occ(20,9,3) occ(31,9,2) occ(44,9,1) occ(48,9,5) occ(52,9,9) occ(62,9,6) occ(66,9,10) occ(8,10,6) occ(14,10,9) occ(22,10,1) occ(46,10,3) occ(50,10,7) occ(58,10,5) occ(64,10,8)
Optimization: -43
Answer: 3
occ(1,9,4) occ(1,1,9) occ(1,3,5) occ(1,5,9) occ(1,1,8) occ(1,2,4) occ(1,10,4) occ(1,4,7) occ(2,7,10) occ(3,5,10) coverage(44) occ(17,1,5) occ(36,1,3) occ(40,1,7) occ(43,1,4) occ(9,2,8) occ(19,2,7) occ(38,2,5) occ(41,2,2) occ(42,2,9) occ(45,2,6) occ(49,2,10) occ(7,3,10) occ(11,3,6) occ(15,3,4) occ(21,3,9) occ(34,3,2) occ(37,3,3) occ(47,3,8) occ(53,3,7) occ(5,4,8) occ(20,4,6) occ(35,4,5) occ(39,4,1) occ(51,4,9) occ(13,5,5) occ(22,5,4) occ(23,5,8) occ(32,5,1) occ(55,5,6) occ(61,5,7) occ(93,5,3) occ(18,6,5) occ(24,6,2) occ(33,6,6) occ(57,6,8) occ(75,6,7) occ(79,6,3) occ(95,6,1) occ(16,7,7) occ(25,7,9) occ(30,7,2) occ(59,7,6) occ(63,7,8) occ(77,7,5) occ(81,7,1) occ(91,7,4) occ(97,7,3) occ(8,8,6) occ(14,8,9) occ(26,8,1) occ(31,8,7) occ(69,8,4) occ(73,8,8) occ(83,8,3) occ(89,8,2) occ(99,8,5) occ(4,9,9) occ(10,9,8) occ(27,9,10) occ(28,9,3) occ(65,9,7) occ(71,9,6) occ(85,9,1) occ(6,10,7) occ(12,10,10) occ(29,10,8) occ(67,10,5) occ(87,10,3)
Optimization: -44
Answer: 4
occ(1,9,4) occ(1,1,9) occ(1,3,5) occ(1,5,9) occ(1,1,8) occ(1,2,4) occ(1,10,4) occ(1,4,7) occ(2,7,10) occ(3,5,10) coverage(46) occ(17,1,5) occ(36,1,3) occ(40,1,7) occ(43,1,4) occ(9,2,8) occ(19,2,7) occ(38,2,5) occ(41,2,2) occ(42,2,9) occ(45,2,6) occ(49,2,10) occ(7,3,10) occ(11,3,6) occ(15,3,4) occ(21,3,9) occ(34,3,2) occ(37,3,3) occ(47,3,8) occ(53,3,7) occ(5,4,8) occ(20,4,6) occ(35,4,5) occ(39,4,1) occ(44,4,10) occ(51,4,9) occ(13,5,5) occ(22,5,4) occ(23,5,8) occ(32,5,1) occ(55,5,6) occ(61,5,7) occ(93,5,3) occ(18,6,5) occ(24,6,2) occ(33,6,6) occ(57,6,8) occ(75,6,7) occ(79,6,3) occ(16,7,7) occ(25,7,9) occ(30,7,2) occ(59,7,6) occ(63,7,8) occ(77,7,5) occ(81,7,1) occ(91,7,4) occ(8,8,6) occ(14,8,9) occ(26,8,1) occ(31,8,7) occ(69,8,4) occ(73,8,8) occ(83,8,3) occ(89,8,2) occ(4,9,9) occ(10,9,8) occ(27,9,10) occ(28,9,3) occ(65,9,7) occ(71,9,6) occ(85,9,1) occ(6,10,7) occ(12,10,10) occ(29,10,8) occ(67,10,5) occ(87,10,3)
Optimization: -46
Answer: 5
occ(1,9,4) occ(1,1,9) occ(1,3,5) occ(1,5,9) occ(1,1,8) occ(1,2,4) occ(1,10,4) occ(1,4,7) occ(2,7,10) occ(3,5,10) coverage(73) occ(19,1,2) occ(27,1,4) occ(45,1,7) occ(56,1,1) occ(60,1,3) occ(7,2,7) occ(15,2,1) occ(25,2,2) occ(29,2,6) occ(49,2,10) occ(54,2,3) occ(62,2,5) occ(11,3,4) occ(17,3,3) occ(21,3,1) occ(43,3,6) occ(47,3,8) occ(58,3,2) occ(64,3,7) occ(5,4,8) occ(9,4,6) occ(13,4,2) occ(23,4,3) occ(31,4,5) occ(51,4,9) occ(52,4,4) occ(16,5,3) occ(22,5,4) occ(40,5,5) occ(41,5,7) occ(55,5,6) occ(66,5,8) occ(12,6,4) occ(18,6,5) occ(24,6,2) occ(33,6,6) occ(42,6,7) occ(50,6,3) occ(53,6,8) occ(59,6,9) occ(10,7,6) occ(14,7,2) occ(20,7,3) occ(38,7,4) occ(39,7,8) occ(57,7,7) occ(68,7,9) occ(4,8,8) occ(26,8,1) occ(30,8,3) occ(35,8,7) occ(36,8,2) occ(44,8,6) occ(48,8,4) occ(61,8,10) occ(67,8,5) occ(74,8,9) occ(8,9,5) occ(32,9,1) occ(37,9,9) occ(65,9,7) occ(69,9,3) occ(70,9,10) occ(78,9,8) occ(6,10,7) occ(28,10,2) occ(34,10,3) occ(46,10,5) occ(63,10,9) occ(71,10,1) occ(72,10,8) occ(76,10,10) occ(80,10,6)
Optimization: -73
Answer: 6
occ(1,9,4) occ(1,1,9) occ(1,3,5) occ(1,5,9) occ(1,1,8) occ(1,2,4) occ(1,10,4) occ(1,4,7) occ(2,7,10) occ(3,5,10) coverage(82) occ(9,1,5) occ(13,1,3) occ(23,1,2) occ(27,1,4) occ(33,1,7) occ(7,2,7) occ(15,2,1) occ(19,2,3) occ(29,2,6) occ(35,2,5) occ(59,2,9) occ(80,2,8) occ(81,2,2) occ(11,3,4) occ(21,3,1) occ(25,3,3) occ(31,3,8) occ(38,3,2) occ(57,3,7) occ(62,3,6) occ(5,4,8) occ(17,4,2) occ(37,4,6) occ(60,4,4) occ(61,4,10) occ(78,4,9) occ(79,4,3) occ(22,5,4) occ(36,5,1) occ(40,5,3) occ(41,5,7) occ(55,5,6) occ(58,5,2) occ(63,5,8) occ(64,5,5) occ(18,6,3) occ(24,6,2) occ(39,6,5) occ(43,6,9) occ(53,6,8) occ(54,6,1) occ(66,6,7) occ(69,6,6) occ(76,6,10) occ(77,6,4) occ(16,7,1) occ(20,7,5) occ(34,7,2) occ(42,7,4) occ(56,7,3) occ(65,7,7) occ(68,7,9) occ(71,7,8) occ(75,7,6) occ(4,8,8) occ(12,8,4) occ(26,8,1) occ(30,8,3) occ(44,8,6) occ(45,8,10) occ(51,8,7) occ(52,8,2) occ(67,8,5) occ(74,8,9) occ(8,9,5) occ(14,9,2) occ(32,9,1) occ(47,9,8) occ(48,9,3) occ(70,9,10) occ(73,9,7) occ(6,10,7) occ(10,10,3) occ(28,10,2) occ(46,10,5) occ(49,10,6) occ(50,10,1) occ(72,10,8)
Optimization: -82
Answer: 7
occ(1,9,4) occ(1,1,9) occ(1,3,5) occ(1,5,9) occ(1,1,8) occ(1,2,4) occ(1,10,4) occ(1,4,7) occ(2,7,10) occ(3,5,10) coverage(83) occ(18,1,4) occ(21,1,7) occ(25,1,3) occ(29,1,1) occ(33,1,5) occ(16,2,2) occ(17,2,8) occ(22,2,1) occ(23,2,5) occ(31,2,3) occ(55,2,7) occ(59,2,9) occ(19,3,6) occ(20,3,3) occ(27,3,2) occ(30,3,8) occ(35,3,4) occ(53,3,9) occ(61,3,7) occ(8,4,4) occ(14,4,3) occ(15,4,9) occ(24,4,2) occ(28,4,6) occ(32,4,10) occ(57,4,8) occ(63,4,5) occ(79,4,1) occ(6,5,6) occ(12,5,1) occ(26,5,4) occ(37,5,5) occ(51,5,8) occ(64,5,7) occ(67,5,2) occ(81,5,3) occ(4,6,8) occ(10,6,3) occ(13,6,10) occ(34,6,9) occ(41,6,6) occ(58,6,7) occ(62,6,5) occ(65,6,4) occ(77,6,2) occ(5,7,9) occ(38,7,8) occ(39,7,4) occ(48,7,5) occ(49,7,7) occ(66,7,6) occ(69,7,1) occ(73,7,3) occ(82,7,2) occ(11,8,9) occ(36,8,10) occ(43,8,7) occ(46,8,3) occ(47,8,5) occ(56,8,8) occ(60,8,6) occ(75,8,1) occ(76,8,2) occ(7,9,8) occ(40,9,9) occ(44,9,5) occ(50,9,6) occ(54,9,10) occ(68,9,7) occ(71,9,2) occ(72,9,3) occ(80,9,1) occ(9,10,10) occ(42,10,7) occ(45,10,6) occ(52,10,8) occ(70,10,5) occ(74,10,1) occ(78,10,3)
Optimization: -83
Answer: 8
occ(1,9,4) occ(1,1,9) occ(1,3,5) occ(1,5,9) occ(1,1,8) occ(1,2,4) occ(1,10,4) occ(1,4,7) occ(2,7,10) occ(3,5,10) coverage(88) occ(20,1,7) occ(45,1,5) occ(49,1,1) occ(52,1,3) occ(58,1,4) occ(66,1,2) occ(12,2,8) occ(16,2,10) occ(43,2,7) occ(46,2,9) occ(47,2,3) occ(50,2,5) occ(56,2,6) occ(60,2,2) occ(10,3,10) occ(18,3,8) occ(22,3,6) occ(48,3,7) occ(51,3,2) occ(54,3,4) occ(64,3,1) occ(68,3,3) occ(8,4,8) occ(14,4,9) occ(32,4,2) occ(41,4,6) occ(44,4,10) occ(53,4,4) occ(62,4,3) occ(70,4,1) occ(79,4,5) occ(6,5,6) occ(23,5,2) occ(24,5,5) occ(28,5,3) occ(34,5,4) occ(42,5,8) occ(77,5,7) occ(80,5,1) occ(4,6,8) occ(30,6,1) occ(39,6,7) occ(40,6,6) occ(55,6,5) occ(65,6,10) occ(72,6,2) occ(75,6,9) occ(81,6,4) occ(82,6,3) occ(5,7,9) occ(13,7,7) occ(21,7,3) occ(25,7,1) occ(26,7,4) occ(36,7,5) occ(63,7,8) occ(78,7,2) occ(83,7,6) occ(15,8,5) occ(19,8,1) occ(29,8,4) occ(37,8,8) occ(38,8,7) occ(57,8,6) occ(67,8,9) occ(73,8,10) occ(74,8,3) occ(84,8,2) occ(7,9,10) occ(11,9,6) occ(17,9,3) occ(27,9,2) occ(33,9,7) occ(61,9,9) occ(71,9,8) occ(76,9,1) occ(85,9,5) occ(9,10,8) occ(31,10,5) occ(35,10,9) occ(59,10,7) occ(69,10,10) occ(86,10,1) occ(87,10,3)
Optimization: -88
Answer: 9
occ(1,9,4) occ(1,1,9) occ(1,3,5) occ(1,5,9) occ(1,1,8) occ(1,2,4) occ(1,10,4) occ(1,4,7) occ(2,7,10) occ(3,5,10) coverage(89) occ(20,1,1) occ(28,1,3) occ(36,1,5) occ(42,1,10) occ(58,1,4) occ(13,2,10) occ(22,2,3) occ(26,2,1) occ(30,2,5) occ(38,2,7) occ(44,2,8) occ(50,2,9) occ(56,2,6) occ(61,2,2) occ(11,3,8) occ(18,3,2) occ(27,3,6) occ(34,3,4) occ(40,3,9) occ(46,3,10) occ(52,3,7) occ(60,3,3) occ(9,4,10) occ(15,4,9) occ(24,4,2) occ(29,4,4) occ(32,4,6) occ(48,4,8) occ(54,4,5) occ(59,4,1) occ(63,4,3) occ(7,5,8) occ(16,5,1) occ(25,5,7) occ(47,5,4) occ(62,5,2) occ(85,5,3) occ(88,5,5) occ(17,6,10) occ(23,6,9) occ(31,6,3) occ(45,6,6) occ(57,6,2) occ(65,6,4) occ(69,6,8) occ(79,6,5) occ(86,6,7) occ(87,6,1) occ(5,7,9) occ(14,7,2) occ(19,7,8) occ(49,7,3) occ(64,7,1) occ(67,7,6) occ(77,7,7) occ(83,7,4) occ(84,7,5) occ(21,8,10) occ(33,8,2) occ(39,8,5) occ(43,8,7) occ(51,8,1) occ(55,8,3) occ(68,8,4) occ(71,8,9) occ(76,8,8) occ(81,8,6) occ(4,9,9) occ(8,9,5) occ(12,9,1) occ(37,9,3) occ(66,9,2) occ(72,9,7) occ(75,9,8) occ(78,9,10) occ(82,9,6) occ(6,10,7) occ(10,10,3) occ(35,10,1) occ(41,10,6) occ(53,10,2) occ(70,10,5) occ(73,10,10) occ(74,10,9) occ(80,10,8)
Optimization: -89
Answer: 10
occ(1,9,4) occ(1,1,9) occ(1,3,5) occ(1,5,9) occ(1,1,8) occ(1,2,4) occ(1,10,4) occ(1,4,7) occ(2,7,10) occ(3,5,10) coverage(90) occ(9,1,5) occ(22,1,4) occ(54,1,6) occ(61,1,3) occ(65,1,7) occ(7,2,7) occ(8,2,10) occ(11,2,3) occ(20,2,2) occ(24,2,6) occ(56,2,8) occ(59,2,1) occ(63,2,5) occ(67,2,9) occ(5,3,9) occ(10,3,8) occ(26,3,4) occ(52,3,7) occ(57,3,3) occ(58,3,10) occ(62,3,6) occ(66,3,2) occ(76,3,1) occ(6,4,9) occ(12,4,6) occ(13,4,2) occ(18,4,1) occ(55,4,5) occ(60,4,8) occ(64,4,4) occ(69,4,10) occ(74,4,3) occ(14,5,4) occ(28,5,3) occ(45,5,5) occ(50,5,6) occ(53,5,7) occ(68,5,1) occ(71,5,8) occ(78,5,2) occ(4,6,8) occ(15,6,3) occ(16,6,2) occ(30,6,1) occ(36,6,6) occ(47,6,7) occ(51,6,9) occ(72,6,4) occ(73,6,10) occ(82,6,5) occ(17,7,5) occ(21,7,9) occ(33,7,1) occ(34,7,4) occ(43,7,6) occ(48,7,7) occ(70,7,2) occ(75,7,8) occ(80,7,3) occ(19,8,7) occ(29,8,4) occ(32,8,2) occ(35,8,3) occ(38,8,5) occ(46,8,9) occ(49,8,8) occ(77,8,10) occ(84,8,6) occ(87,8,1) occ(23,9,10) occ(27,9,6) occ(31,9,2) occ(37,9,1) occ(41,9,5) occ(42,9,8) occ(81,9,7) occ(85,9,3) occ(88,9,9) occ(25,10,8) occ(39,10,3) occ(40,10,6) occ(44,10,10) occ(79,10,9) occ(83,10,5) occ(86,10,7) occ(89,10,2)
Optimization: -90
Answer: 11
occ(1,9,4) occ(1,1,9) occ(1,3,5) occ(1,5,9) occ(1,1,8) occ(1,2,4) occ(1,10,4) occ(1,4,7) occ(2,7,10) occ(3,5,10) coverage(91) occ(38,1,2) occ(50,1,4) occ(61,1,3) occ(65,1,1) occ(69,1,5) occ(77,1,7) occ(83,1,6) occ(87,1,10) occ(17,2,10) occ(34,2,1) occ(48,2,6) occ(52,2,2) occ(59,2,5) occ(67,2,3) occ(71,2,7) occ(79,2,9) occ(85,2,8) occ(19,3,8) occ(36,3,3) occ(40,3,1) occ(63,3,2) occ(70,3,4) occ(75,3,6) occ(81,3,7) occ(89,3,9) occ(8,4,4) occ(15,4,9) occ(32,4,2) occ(46,4,5) occ(53,4,10) occ(54,4,3) occ(57,4,6) occ(73,4,8) occ(74,4,1) occ(6,5,6) occ(21,5,7) occ(42,5,2) occ(55,5,8) occ(56,5,1) occ(68,5,5) occ(72,5,3) occ(78,5,4) occ(4,6,8) occ(10,6,3) occ(13,6,10) occ(23,6,5) occ(30,6,1) occ(35,6,7) occ(44,6,4) occ(51,6,9) occ(76,6,2) occ(80,6,6) occ(5,7,9) occ(12,7,1) occ(22,7,4) occ(25,7,3) occ(33,7,5) occ(43,7,8) occ(49,7,7) occ(58,7,2) occ(66,7,6) occ(11,8,9) occ(16,8,4) occ(20,8,6) occ(27,8,1) occ(28,8,2) occ(31,8,3) occ(37,8,8) occ(45,8,10) occ(82,8,7) occ(86,8,5) occ(7,9,10) occ(14,9,2) occ(24,9,3) occ(41,9,9) occ(47,9,8) occ(60,9,1) occ(64,9,5) occ(88,9,7) occ(9,10,8) occ(18,10,5) occ(26,10,1) occ(29,10,2) occ(39,10,7) occ(62,10,3) occ(84,10,6) occ(90,10,9)
Optimization: -91
*** Info : (clingo): INTERRUPTED by signal!
SATISFIABLE

TIME LIMIT   : 1
Models       : 11+
  Optimum    : unknown
Optimization : -91
Calls        : 1
Time         : 300.000s (Solving: 298.57s 1st Model: 0.00s Unsat: 0.00s)
CPU Time     : 300.004s
